NAME : ar9152
COMMENT : 9152 locations in Argentina
COMMENT : Derived from National Imagery and Mapping Agency data
TYPE : TSP
DIMENSION : 2
EDGE_WEIGHT_TYPE : EUC_2D
NODE_COORD_SECTION
1 39.9199 32.8543
2 39.966751 32.584229
EOF